NAME : LRC1_6_1
TYPE : PDPTW
DIMENSION : 150
EDGE_WEIGHT_TYPE : EXACT_2D
NODE_COORD_SECTION
1 1 0
2 150 0
3 0 0
4 -24 867
5 0 2
6 83 113
7 3 199
8 541 10
9 61 84
10 10 0
11 103 20
12 0 241
13 10 56
14 162 7
15 645 675
16 8 230
17 410 10
18 55 68
19 10 497
20 180 -15
21 341 0
22 -20 306
23 0 12
24 203 233
25 13 257
26 193 10
27 57 155
28 10 0
29 26 -6
30 52 0
31 10 123
32 357 17
33 227 257
34 18 89
35 283 10
36 84 231
37 10 482
38 240 17
39 0 601
40 -20 190
41 0 22
42 138 168
43 23 180
44 83 10
45 240 73
46 10 0
47 265 20
48 0 111
49 -20 90
50 0 27
51 174 204
52 28 160
53 90 10
54 289 130
55 10 0
56 255 -20
57 411 0
58 -10 352
59 0 32
60 582 612
61 33 115
62 87 10
63 250 228
64 10 131
65 89 -27
66 533 0
67 20 82
68 549 37
69 33 63
70 38 159
71 180 10
72 47 277
73 10 0
74 269 -18
75 598 0
76 -13 223
77 0 42
78 136 166
79 43 74
80 834 10
81 140 140
82 10 0
83 241 -42
84 465 0
85 20 98
86 407 47
87 67 97
88 48 136
89 624 10
90 250 124
91 10 0
92 299 -13
93 430 0
94 -20 213
95 0 52
96 118 148
97 53 212
98 209 10
99 259 59
100 10 0
101 104 21
102 0 591
103 20 165
104 517 57
105 629 659
106 58 57
107 241 10
108 232 121
109 10 0
110 132 10
111 0 602
112 24 371
113 500 62
114 148 178
115 63 143
116 69 10
117 248 41
118 10 0
119 263 30
120 0 262
121 20 89
122 419 67
123 113 143
124 68 259
125 286 10
126 38 139
127 10 575
128 41 -10
129 327 0
130 10 140
131 13 72
132 216 246
133 73 102
134 873 10
135 43 286
136 10 39
137 160 20
138 0 412
139 13 109
140 433 77
141 203 233
142 78 88
143 664 10
144 122 127
145 10 0
146 63 10
147 0 89
148 16 97
149 92 82
150 640 670
PICKUP_AND_DELIVERY_SECTION
1 0 0 0 0 0 0
2 0 0 0 0 1206 0
3 0 0 0 0 0 125
4 0 0 0 0 10 10
5 0 0 0 0 107 107
6 0 0 0 0 0 0
7 0 0 0 0 13 13
8 0 0 0 0 557 0
9 0 0 0 0 333 333
10 0 0 0 0 5 5
11 0 0 0 0 83 83
12 0 0 0 0 143 143
13 0 0 0 0 10 10
14 0 0 0 0 141 141
15 0 0 0 0 0 0
16 0 0 0 0 -20 -20
17 0 0 0 0 0 0
18 0 0 0 0 143 143
19 0 0 0 0 10 0
20 0 0 0 0 402 402
21 0 0 0 0 159 159
22 0 0 0 0 10 10
23 0 0 0 0 4 4
24 0 0 0 0 0 0
25 0 0 0 0 -10 -10
26 0 0 0 0 0 0
27 0 0 0 0 102 102
28 0 0 0 0 15 15
29 0 0 0 0 595 595
30 0 0 0 0 231 231
31 0 0 0 0 10 10
32 0 0 0 0 132 132
33 0 0 0 0 289 289
34 0 0 0 0 -30 -30
35 0 0 0 0 0 0
36 0 0 0 0 545 545
37 0 0 0 0 20 0
38 0 0 0 0 555 555
39 0 0 0 0 110 110
40 0 0 0 0 10 10
41 0 0 0 0 74 74
42 0 0 0 0 0 0
43 0 0 0 0 -14 -14
44 0 0 0 0 0 0
45 0 0 0 0 118 118
46 0 0 0 0 25 25
47 0 0 0 0 208 208
48 0 0 0 0 134 134
49 0 0 0 0 10 10
50 0 0 0 0 59 59
51 0 0 0 0 0 0
52 0 0 0 0 10 10
53 0 0 0 0 275 0
54 0 0 0 0 329 329
55 0 0 0 0 30 30
56 0 0 0 0 271 271
57 0 0 0 0 234 234
58 0 0 0 0 10 10
59 0 0 0 0 208 208
60 0 0 0 0 0 0
61 0 0 0 0 10 10
62 0 0 0 0 90 0
63 0 0 0 0 777 777
64 0 0 0 0 35 0
65 0 0 0 0 856 856
66 0 0 0 0 105 105
67 0 0 0 0 10 10
68 0 0 0 0 183 183
69 0 0 0 0 0 0
70 0 0 0 0 -24 -24
71 0 0 0 0 0 0
72 0 0 0 0 163 163
73 0 0 0 0 40 40
74 0 0 0 0 476 476
75 0 0 0 0 212 212
76 0 0 0 0 10 10
77 0 0 0 0 149 149
78 0 0 0 0 0 0
79 0 0 0 0 -20 -20
80 0 0 0 0 0 0
81 0 0 0 0 14 14
82 0 0 0 0 45 45
83 0 0 0 0 701 701
84 0 0 0 0 222 222
85 0 0 0 0 10 10
86 0 0 0 0 124 124
87 0 0 0 0 0 0
88 0 0 0 0 -17 -17
89 0 0 0 0 0 0
90 0 0 0 0 133 133
91 0 0 0 0 50 50
92 0 0 0 0 407 407
93 0 0 0 0 258 258
94 0 0 0 0 10 10
95 0 0 0 0 47 47
96 0 0 0 0 0 0
97 0 0 0 0 -10 -10
98 0 0 0 0 0 0
99 0 0 0 0 186 186
100 0 0 0 0 55 55
101 0 0 0 0 99 99
102 0 0 0 0 77 77
103 0 0 0 0 10 10
104 0 0 0 0 45 45
105 0 0 0 0 272 272
106 0 0 0 0 -20 -20
107 0 0 0 0 0 0
108 0 0 0 0 577 577
109 0 0 0 0 60 60
110 0 0 0 0 182 182
111 0 0 0 0 18 18
112 0 0 0 0 10 10
113 0 0 0 0 113 113
114 0 0 0 0 0 0
115 0 0 0 0 20 20
116 0 0 0 0 423 0
117 0 0 0 0 469 469
118 0 0 0 0 65 65
119 0 0 0 0 219 219
120 0 0 0 0 109 109
121 0 0 0 0 10 10
122 0 0 0 0 71 71
123 0 0 0 0 343 343
124 0 0 0 0 10 10
125 0 0 0 0 156 0
126 0 0 0 0 337 337
127 0 0 0 0 70 0
128 0 0 0 0 374 374
129 0 0 0 0 255 255
130 0 0 0 0 10 10
131 0 0 0 0 122 122
132 0 0 0 0 0 0
133 0 0 0 0 -32 -32
134 0 0 0 0 0 0
135 0 0 0 0 173 173
136 0 0 0 0 75 0
137 0 0 0 0 120 120
138 0 0 0 0 172 172
139 0 0 0 0 10 10
140 0 0 0 0 22 22
141 0 0 0 0 164 164
142 0 0 0 0 -13 -13
143 0 0 0 0 0 0
144 0 0 0 0 0 36
145 0 0 0 0 80 80
146 0 0 0 0 188 188
147 0 0 0 0 53 53
148 0 0 0 0 10 10
149 0 0 0 0 281 281
150 0 0 0 0 0 0
DEPOT_SECTION
1 
-1
EOF
